679007.0
1095
0 1 2 4 5 6 7 8 9 13 14 16 17 18 21 25 27 28 29 30 31 35 36 37 38 39 40 42 43 45 46 48 49 50 53 55 56 57 59 61 62 64 66 68 69 70 71 72 74 75 76 77 78 79 82 83 84 85 87 88 89 90 91 93 96 97 98 99 